c SAT Generator for power-law distributed variable frequencies
c -g u -v 20 -c 91 -k 3 -p 2.750000 -b 3.200000 -f /home/schmidt/Devel/ni-kop-sat/data/ensemble/ruf20-91/ruf20-91-990 -u 1 -U 1 -s 582119113
p cnf 20 91
-3 -6 19 0
3 -10 -15 0
6 7 -17 0
2 9 -14 0
-6 -15 19 0
-6 19 20 0
-3 -7 -13 0
-14 15 -17 0
-11 14 19 0
1 7 -8 0
1 -6 10 0
-4 9 11 0
-1 3 16 0
8 -15 16 0
-11 -18 20 0
-3 -8 9 0
1 3 -16 0
-4 6 -18 0
-4 8 13 0
-8 15 -18 0
1 -7 19 0
-1 3 -11 0
-4 10 18 0
5 13 17 0
12 -16 20 0
-4 -7 -15 0
3 -6 12 0
-8 14 16 0
-5 6 20 0
-13 -15 16 0
-4 -15 -17 0
-6 -15 -18 0
-3 -6 8 0
9 10 -16 0
-8 -11 -17 0
4 -15 18 0
-9 -17 -20 0
-1 -10 16 0
-5 -13 19 0
3 12 17 0
5 -10 12 0
-5 10 -15 0
-5 10 19 0
-12 -15 18 0
4 15 -19 0
-1 -7 14 0
2 -9 16 0
-2 3 4 0
2 -10 -16 0
3 11 -14 0
2 -8 14 0
-4 -8 -12 0
-10 12 19 0
3 -9 14 0
-4 -9 11 0
6 -10 11 0
-8 -10 -16 0
5 -8 10 0
4 -9 -18 0
4 -15 -19 0
-7 9 -14 0
-3 -10 19 0
-4 -11 -17 0
6 -17 18 0
8 -12 18 0
-4 10 -17 0
-4 11 -18 0
-10 -11 -12 0
-1 -8 15 0
-10 14 -19 0
5 7 -8 0
-1 4 -5 0
1 -7 -18 0
-2 6 -12 0
-1 2 -3 0
-5 13 -18 0
-11 -13 -20 0
3 -10 11 0
-1 4 -17 0
-5 -9 13 0
-3 -4 11 0
8 12 16 0
-5 7 9 0
-5 -9 20 0
-2 -10 18 0
2 8 14 0
7 -8 17 0
9 14 -18 0
1 4 -16 0
-12 -13 -14 0
2 3 -5 0
